
n_res = 4;
rcap = [54, 53, 291, 241];
rtype = [1, 1, 2, 2];
n_tasks = 50;
modes =  [{1, 2, 3}, {4, 5, 6}, {7, 8, 9}, {10, 11, 12}, {13, 14, 15}, {16, 17, 18}, {19, 20, 21}, {22, 23, 24}, {25, 26, 27}, {28, 29, 30}, {31, 32, 33}, {34, 35, 36}, {37, 38, 39}, {40, 41, 42}, {43, 44, 45}, {46, 47, 48}, {49, 50, 51}, {52, 53, 54}, {55, 56, 57}, {58, 59, 60}, {61, 62, 63}, {64, 65, 66}, {67, 68, 69}, {70, 71, 72}, {73, 74, 75}, {76, 77, 78}, {79, 80, 81}, {82, 83, 84}, {85, 86, 87}, {88, 89, 90}, {91, 92, 93}, {94, 95, 96}, {97, 98, 99}, {100, 101, 102}, {103, 104, 105}, {106, 107, 108}, {109, 110, 111}, {112, 113, 114}, {115, 116, 117}, {118, 119, 120}, {121, 122, 123}, {124, 125, 126}, {127, 128, 129}, {130, 131, 132}, {133, 134, 135}, {136, 137, 138}, {139, 140, 141}, {142, 143, 144}, {145, 146, 147}, {148, 149, 150}];
succ =  [{50, 48, 34, 31, 30, 29, 28, 27, 25, 18, 10}, {31, 30, 25, 22, 20, 18, 8}, {50, 45, 44, 42, 28, 27, 24, 17}, {50, 49, 45, 44, 43, 39, 38, 37, 32, 30, 29, 27, 26}, {49, 47, 44, 41, 38, 33, 30, 26, 22}, {48, 45, 42, 38, 37, 30, 27, 20}, {44, 43, 33, 21, 17}, {49, 48, 46, 45, 44, 43, 41, 40, 37, 35, 32, 28}, {48, 45, 44, 43, 42, 39, 38, 33, 30, 29, 26}, {47, 46, 45, 44, 41, 39, 38, 37, 26}, {47, 45, 42, 39, 38, 36, 29, 27}, {46, 43, 41, 40, 29, 26, 25}, {48, 44, 43, 40, 39, 33, 25}, {47, 44, 43, 42, 40, 38, 37, 36, 29}, {46, 43, 42, 41, 39, 38, 36, 31}, {50, 42, 40, 39, 38, 37, 26}, {31, 30, 29, 26}, {49, 47, 45, 38, 37, 36, 35}, {48, 43, 40, 39, 38, 36, 35}, {44, 41, 40, 39, 26}, {42, 41, 40, 39, 36, 35}, {45, 39, 37, 35, 32}, {47, 42, 37, 36, 29}, {43, 41, 37, 35}, {42, 38, 35}, {36, 35}, {46, 41}, {39, 38}, {35}, {40}, {37}, {36}, {37}, {43}, {}, {}, {}, {}, {}, {}, {}, {}, {}, {}, {}, {}, {}, {}, {}, {}];
n_opt = 150;
dur = [2, 5, 8, 5, 8, 9, 2, 5, 10, 1, 2, 4, 3, 4, 5, 5, 7, 10, 1, 4, 6, 1, 7, 9, 6, 7, 8, 1, 2, 10, 3, 8, 9, 2, 5, 9, 6, 7, 9, 2, 8, 10, 1, 3, 4, 2, 6, 7, 1, 6, 10, 3, 5, 9, 3, 4, 8, 1, 2, 10, 1, 7, 10, 6, 7, 10, 2, 5, 6, 1, 2, 3, 4, 8, 10, 3, 4, 10, 2, 3, 4, 4, 5, 6, 5, 6, 10, 3, 4, 5, 3, 4, 6, 1, 3, 4, 1, 6, 9, 3, 4, 7, 1, 4, 9, 1, 2, 7, 4, 5, 6, 1, 5, 8, 5, 6, 7, 3, 7, 9, 2, 3, 7, 5, 8, 9, 1, 6, 10, 1, 7, 9, 6, 7, 8, 3, 6, 10, 1, 6, 8, 2, 5, 7, 4, 5, 8, 7, 8, 10];
rreq = [|4, 3, 1, 4, 2, 2, 9, 7, 4, 3, 3, 3, 3, 3, 3, 9, 7, 4, 5, 5, 5, 7, 4, 4, 9, 9, 7, 8, 8, 8, 8, 7, 6, 6, 5, 5, 5, 4, 3, 9, 7, 5, 9, 5, 4, 3, 3, 3, 4, 3, 2, 7, 6, 3, 6, 5, 4, 6, 6, 5, 10, 10, 10, 8, 7, 7, 6, 3, 2, 7, 7, 4, 3, 2, 1, 7, 3, 2, 8, 4, 2, 4, 2, 2, 1, 1, 1, 10, 8, 7, 7, 4, 3, 8, 8, 7, 3, 3, 3, 7, 5, 5, 4, 4, 3, 1, 1, 1, 9, 8, 8, 3, 3, 2, 7, 6, 4, 5, 2, 2, 5, 5, 4, 8, 8, 8, 6, 6, 6, 9, 7, 4, 9, 5, 1, 7, 6, 5, 10, 8, 8, 5, 3, 2, 8, 6, 4, 9, 7, 5
 |10, 8, 8, 3, 2, 2, 9, 8, 8, 5, 4, 4, 9, 7, 5, 2, 2, 2, 5, 3, 2, 3, 2, 2, 8, 7, 7, 8, 8, 8, 2, 2, 2, 9, 8, 8, 4, 3, 2, 8, 7, 7, 5, 5, 3, 7, 6, 5, 1, 1, 1, 10, 4, 4, 8, 6, 5, 3, 2, 2, 8, 7, 6, 5, 5, 5, 3, 3, 2, 8, 6, 5, 9, 8, 8, 8, 3, 3, 9, 7, 7, 2, 2, 2, 6, 5, 1, 7, 3, 3, 8, 7, 6, 7, 5, 5, 4, 3, 2, 6, 6, 3, 9, 5, 3, 7, 6, 6, 9, 8, 7, 9, 6, 5, 10, 8, 6, 7, 5, 5, 4, 4, 4, 10, 9, 8, 3, 3, 3, 7, 4, 3, 3, 3, 3, 4, 3, 2, 7, 5, 4, 7, 5, 2, 8, 6, 6, 9, 7, 5
 |9, 6, 4, 6, 5, 5, 7, 5, 2, 8, 7, 7, 8, 7, 7, 7, 6, 6, 7, 5, 4, 6, 3, 1, 6, 5, 4, 6, 6, 6, 7, 5, 3, 7, 4, 3, 6, 6, 6, 7, 6, 2, 9, 9, 8, 2, 2, 2, 7, 6, 6, 6, 4, 2, 9, 7, 5, 6, 6, 6, 10, 8, 5, 4, 4, 4, 9, 8, 8, 4, 4, 4, 10, 9, 9, 9, 8, 6, 8, 7, 5, 9, 8, 6, 6, 5, 4, 9, 6, 3, 7, 6, 3, 8, 7, 6, 8, 8, 6, 8, 8, 6, 6, 5, 4, 6, 5, 5, 8, 6, 5, 5, 5, 4, 7, 6, 5, 2, 1, 1, 10, 9, 8, 6, 4, 4, 6, 6, 6, 9, 8, 8, 3, 3, 3, 5, 3, 3, 10, 6, 5, 7, 6, 6, 3, 2, 1, 8, 5, 4
 |9, 7, 5, 4, 5, 4, 7, 5, 5, 4, 4, 2, 6, 5, 5, 3, 2, 2, 4, 4, 4, 10, 8, 5, 4, 4, 4, 7, 6, 5, 8, 8, 5, 5, 4, 4, 3, 2, 2, 2, 2, 1, 5, 4, 3, 3, 2, 2, 3, 2, 2, 3, 3, 3, 1, 1, 1, 10, 8, 5, 6, 5, 2, 3, 3, 2, 9, 8, 6, 10, 6, 5, 7, 7, 7, 6, 3, 3, 2, 2, 2, 9, 8, 8, 3, 3, 3, 3, 3, 3, 8, 7, 6, 8, 7, 6, 7, 5, 4, 5, 5, 5, 9, 9, 9, 4, 3, 2, 2, 1, 1, 6, 6, 6, 4, 2, 1, 6, 3, 1, 6, 5, 5, 4, 2, 2, 4, 2, 1, 9, 7, 5, 6, 4, 4, 7, 7, 7, 4, 3, 3, 9, 6, 5, 10, 6, 4, 9, 8, 7|];